
        $ From http://www.csplib.org/Problems/prob009/data/helmut.pdf
        $ Problem number 135
        $ Sequence length : 25
        language ESSENCE' 1.0
        letting sizemaster be 421
        letting sizes be sequence(1,2,4,5,7,9,12,16,20,22,23,35,38,48,56,83,94,104,116,118,128,140,150,153,177)
        